
Gurobi 10.0.1 (linux64) logging started Sun Nov 26 15:40:37 2023

Set parameter LogFile to value "ArtificialInstance/ExperimentV2/S4T3K1/AdRo/gurobiSpRo33.txt"
Gurobi Optimizer version 10.0.1 build v10.0.1rc0 (linux64)

CPU model: AMD EPYC 7H12 64-Core Processor, instruction set [SSE2|AVX|AVX2]
Thread count: 128 physical cores, 128 logical processors, using up to 32 threads

Academic license 656792 - for non-commercial use only - registered to b.___@student.vu.nl
Optimize a model with 3819 rows, 3606 columns and 14293 nonzeros
Model fingerprint: 0x1fe4a496
Variable types: 1 continuous, 3605 integer (3605 binary)
Coefficient statistics:
  Matrix range     [1e+00, 4e+01]
  Objective range  [1e+00, 2e+01]
  Bounds range     [1e+00, 1e+00]
  RHS range        [1e+00, 1e+00]
Presolve removed 1414 rows and 1057 columns
Presolve time: 0.04s
Presolved: 2405 rows, 2549 columns, 9820 nonzeros
Variable types: 1 continuous, 2548 integer (2548 binary)
Found heuristic solution: objective 181.3249314

Root relaxation: objective 3.271190e+01, 500 iterations, 0.01 seconds (0.00 work units)

    Nodes    |    Current Node    |     Objective Bounds      |     Work
 Expl Unexpl |  Obj  Depth IntInf | Incumbent    BestBd   Gap | It/Node Time

     0     0   32.71190    0   13  181.32493   32.71190  82.0%     -    0s
H    0     0                      32.7118952   32.71190  0.00%     -    0s
     0     0   32.71190    0   13   32.71190   32.71190  0.00%     -    0s

Explored 1 nodes (919 simplex iterations) in 0.12 seconds (0.06 work units)
Thread count was 32 (of 128 available processors)

Solution count 2: 32.7119 181.325 

Optimal solution found (tolerance 1.00e-04)
Best objective 3.271189515076e+01, best bound 3.271189515076e+01, gap 0.0000%
